benchmarks_vrp/att48_2.vrp
NAME: att48_2
TYPE: CVRP
COMMENT: (Rinaldi,Yarrow/Araque) - Cluster Nr.2
DIMENSION: 4
CAPACITY: 15
EDGE_WEIGHT_TYPE: ATT
NODE_COORD_TYPE: TWOD_COORDS
NODE_COORD_SECTION: 
1 8476 2874
4 6823 4674
2 8035 2880
3 7721 3451
DEPOT_SECTION: 
4
-1
DEMAND_SECTION: 
3 1
1 1
4 0
2 1
EOF
