benchmarks_vrp/att48_2.tour
NAME: att48_2 solution
TYPE: TOUR
TOUR_SECTION:
4 1 2 3 -1
-1
EOF